NAME : 10_3_3_2_(24).dat
COMMENT : Henke, Speranza, Wäscher, 2015
TYPE : MCVRP
DIMENSION : 11
EDGE_WEIGHT_TYPE : DISTANCE_MATRIX
CAPACITY : 1000
VEHICLES : 3
PRODUCT TYPES : 3
COMPARTMENTS : 3
NODE_COORD_SECTION
1 50 50
2 54.72 69.68
3 14 3.02
4 75.77 33.84
5 22.65 56.69
6 99.06 3
7 30.09 10.62
8 18.01 54.18
9 52.58 37.75
10 78.39 36.96
11 21.41 23.45
DEMAND_SECTION
1 0 0 0
2 106 103 0
3 156 47 0
4 140 0 60
5 0 79 5
6 0 15 85
7 42 0 6
8 85 32 0
9 109 0 103
10 0 101 59
11 158 100 0
DEPOT_SECTION
1
EOF